c "random instance"
p edges 150 4540
e 1 2
e 1 4
e 1 7
e 1 8
e 1 11
e 1 12
e 1 14
e 1 15
e 1 20
e 1 21
e 1 22
e 1 26
e 1 27
e 1 30
e 1 33
e 1 35
e 1 38
e 1 42
e 1 49
e 1 50
e 1 52
e 1 58
e 1 64
e 1 71
e 1 76
e 1 79
e 1 82
e 1 83
e 1 84
e 1 87
e 1 88
e 1 90
e 1 93
e 1 94
e 1 97
e 1 98
e 1 100
e 1 101
e 1 107
e 1 108
e 1 109
e 1 111
e 1 115
e 1 120
e 1 122
e 1 123
e 1 125
e 1 127
e 1 129
e 1 144
e 1 149
e 1 150
e 2 3
e 2 4
e 2 5
e 2 6
e 2 7
e 2 9
e 2 13
e 2 16
e 2 18
e 2 21
e 2 24
e 2 26
e 2 29
e 2 30
e 2 31
e 2 33
e 2 37
e 2 39
e 2 42
e 2 43
e 2 46
e 2 50
e 2 54
e 2 56
e 2 58
e 2 59
e 2 61
e 2 62
e 2 64
e 2 67
e 2 69
e 2 70
e 2 71
e 2 72
e 2 74
e 2 75
e 2 76
e 2 78
e 2 81
e 2 82
e 2 83
e 2 85
e 2 89
e 2 90
e 2 91
e 2 95
e 2 96
e 2 105
e 2 109
e 2 110
e 2 112
e 2 114
e 2 115
e 2 123
e 2 126
e 2 127
e 2 128
e 2 130
e 2 131
e 2 133
e 2 134
e 2 135
e 2 136
e 2 138
e 2 142
e 2 144
e 2 146
e 2 147
e 2 150
e 3 4
e 3 5
e 3 7
e 3 11
e 3 14
e 3 18
e 3 20
e 3 21
e 3 26
e 3 29
e 3 31
e 3 33
e 3 35
e 3 36
e 3 39
e 3 40
e 3 43
e 3 45
e 3 46
e 3 47
e 3 48
e 3 51
e 3 52
e 3 54
e 3 56
e 3 62
e 3 65
e 3 69
e 3 71
e 3 75
e 3 77
e 3 78
e 3 79
e 3 80
e 3 84
e 3 90
e 3 93
e 3 97
e 3 103
e 3 105
e 3 107
e 3 109
e 3 111
e 3 113
e 3 115
e 3 117
e 3 122
e 3 125
e 3 127
e 3 129
e 3 131
e 3 132
e 3 133
e 3 136
e 3 137
e 3 138
e 3 139
e 3 140
e 3 145
e 3 147
e 3 148
e 4 6
e 4 7
e 4 9
e 4 10
e 4 13
e 4 14
e 4 18
e 4 20
e 4 28
e 4 30
e 4 31
e 4 33
e 4 34
e 4 36
e 4 42
e 4 44
e 4 45
e 4 46
e 4 47
e 4 48
e 4 52
e 4 55
e 4 59
e 4 60
e 4 62
e 4 64
e 4 66
e 4 68
e 4 69
e 4 71
e 4 77
e 4 80
e 4 81
e 4 82
e 4 85
e 4 90
e 4 95
e 4 97
e 4 100
e 4 101
e 4 103
e 4 104
e 4 113
e 4 115
e 4 119
e 4 121
e 4 122
e 4 123
e 4 124
e 4 125
e 4 127
e 4 131
e 4 132
e 4 135
e 4 136
e 4 137
e 4 145
e 4 146
e 5 15
e 5 17
e 5 18
e 5 20
e 5 21
e 5 24
e 5 27
e 5 32
e 5 37
e 5 39
e 5 41
e 5 43
e 5 48
e 5 50
e 5 52
e 5 53
e 5 54
e 5 57
e 5 61
e 5 72
e 5 73
e 5 76
e 5 80
e 5 83
e 5 84
e 5 86
e 5 87
e 5 88
e 5 91
e 5 92
e 5 93
e 5 94
e 5 96
e 5 100
e 5 103
e 5 104
e 5 114
e 5 117
e 5 123
e 5 124
e 5 125
e 5 131
e 5 134
e 5 136
e 5 137
e 5 140
e 5 147
e 6 7
e 6 8
e 6 9
e 6 10
e 6 11
e 6 15
e 6 22
e 6 25
e 6 26
e 6 27
e 6 28
e 6 30
e 6 32
e 6 37
e 6 38
e 6 39
e 6 40
e 6 41
e 6 42
e 6 43
e 6 45
e 6 48
e 6 50
e 6 57
e 6 64
e 6 69
e 6 73
e 6 75
e 6 78
e 6 79
e 6 82
e 6 84
e 6 89
e 6 90
e 6 91
e 6 95
e 6 98
e 6 101
e 6 103
e 6 107
e 6 108
e 6 115
e 6 118
e 6 119
e 6 120
e 6 121
e 6 123
e 6 124
e 6 125
e 6 127
e 6 129
e 6 131
e 6 133
e 6 134
e 6 138
e 6 139
e 6 141
e 6 144
e 6 149
e 7 8
e 7 11
e 7 15
e 7 16
e 7 17
e 7 21
e 7 22
e 7 24
e 7 26
e 7 27
e 7 30
e 7 32
e 7 34
e 7 36
e 7 39
e 7 40
e 7 41
e 7 42
e 7 44
e 7 46
e 7 47
e 7 49
e 7 53
e 7 54
e 7 55
e 7 57
e 7 59
e 7 62
e 7 64
e 7 66
e 7 68
e 7 69
e 7 73
e 7 74
e 7 75
e 7 78
e 7 81
e 7 85
e 7 86
e 7 87
e 7 91
e 7 94
e 7 97
e 7 98
e 7 100
e 7 104
e 7 107
e 7 109
e 7 110
e 7 111
e 7 113
e 7 114
e 7 116
e 7 117
e 7 119
e 7 123
e 7 124
e 7 129
e 7 134
e 7 137
e 7 141
e 7 142
e 7 147
e 8 10
e 8 11
e 8 12
e 8 14
e 8 17
e 8 18
e 8 21
e 8 22
e 8 23
e 8 25
e 8 29
e 8 30
e 8 31
e 8 32
e 8 37
e 8 39
e 8 43
e 8 45
e 8 47
e 8 48
e 8 49
e 8 57
e 8 65
e 8 67
e 8 68
e 8 69
e 8 70
e 8 74
e 8 76
e 8 77
e 8 78
e 8 81
e 8 82
e 8 85
e 8 86
e 8 87
e 8 89
e 8 92
e 8 93
e 8 96
e 8 97
e 8 98
e 8 99
e 8 100
e 8 101
e 8 103
e 8 108
e 8 109
e 8 112
e 8 113
e 8 115
e 8 117
e 8 123
e 8 124
e 8 126
e 8 128
e 8 129
e 8 130
e 8 134
e 8 136
e 8 137
e 8 139
e 8 142
e 8 144
e 8 148
e 8 149
e 8 150
e 9 11
e 9 12
e 9 13
e 9 14
e 9 15
e 9 17
e 9 20
e 9 21
e 9 24
e 9 25
e 9 29
e 9 31
e 9 33
e 9 34
e 9 35
e 9 37
e 9 38
e 9 40
e 9 41
e 9 43
e 9 45
e 9 48
e 9 49
e 9 50
e 9 52
e 9 53
e 9 54
e 9 55
e 9 58
e 9 60
e 9 61
e 9 62
e 9 63
e 9 65
e 9 76
e 9 83
e 9 84
e 9 85
e 9 88
e 9 91
e 9 92
e 9 95
e 9 102
e 9 109
e 9 110
e 9 114
e 9 115
e 9 116
e 9 118
e 9 120
e 9 124
e 9 126
e 9 129
e 9 134
e 9 139
e 9 141
e 9 144
e 9 145
e 9 149
e 10 11
e 10 12
e 10 13
e 10 15
e 10 16
e 10 17
e 10 19
e 10 20
e 10 22
e 10 26
e 10 32
e 10 34
e 10 36
e 10 39
e 10 41
e 10 42
e 10 44
e 10 45
e 10 46
e 10 47
e 10 49
e 10 50
e 10 54
e 10 56
e 10 58
e 10 62
e 10 65
e 10 67
e 10 70
e 10 74
e 10 76
e 10 77
e 10 80
e 10 81
e 10 85
e 10 86
e 10 87
e 10 88
e 10 89
e 10 90
e 10 98
e 10 99
e 10 102
e 10 103
e 10 107
e 10 112
e 10 115
e 10 117
e 10 118
e 10 119
e 10 123
e 10 124
e 10 126
e 10 128
e 10 131
e 10 132
e 10 134
e 10 137
e 10 142
e 10 146
e 10 147
e 11 16
e 11 20
e 11 22
e 11 24
e 11 26
e 11 30
e 11 32
e 11 33
e 11 35
e 11 42
e 11 44
e 11 45
e 11 46
e 11 48
e 11 49
e 11 52
e 11 53
e 11 56
e 11 57
e 11 59
e 11 62
e 11 63
e 11 64
e 11 65
e 11 66
e 11 67
e 11 68
e 11 69
e 11 70
e 11 73
e 11 76
e 11 77
e 11 78
e 11 83
e 11 86
e 11 87
e 11 94
e 11 96
e 11 100
e 11 101
e 11 104
e 11 106
e 11 116
e 11 119
e 11 120
e 11 123
e 11 124
e 11 129
e 11 131
e 11 135
e 11 136
e 11 137
e 11 138
e 11 139
e 11 141
e 11 142
e 11 147
e 11 150
e 12 14
e 12 18
e 12 20
e 12 22
e 12 24
e 12 26
e 12 27
e 12 29
e 12 30
e 12 37
e 12 41
e 12 44
e 12 45
e 12 46
e 12 48
e 12 50
e 12 51
e 12 57
e 12 58
e 12 63
e 12 65
e 12 67
e 12 74
e 12 75
e 12 81
e 12 83
e 12 85
e 12 87
e 12 88
e 12 90
e 12 93
e 12 94
e 12 96
e 12 102
e 12 104
e 12 107
e 12 113
e 12 118
e 12 119
e 12 120
e 12 121
e 12 122
e 12 123
e 12 124
e 12 126
e 12 127
e 12 128
e 12 131
e 12 134
e 12 136
e 12 142
e 12 144
e 12 148
e 12 149
e 12 150
e 13 17
e 13 21
e 13 23
e 13 26
e 13 31
e 13 32
e 13 33
e 13 36
e 13 40
e 13 46
e 13 47
e 13 49
e 13 50
e 13 51
e 13 54
e 13 56
e 13 59
e 13 60
e 13 64
e 13 65
e 13 67
e 13 71
e 13 72
e 13 81
e 13 83
e 13 85
e 13 86
e 13 87
e 13 88
e 13 89
e 13 91
e 13 92
e 13 93
e 13 95
e 13 98
e 13 102
e 13 105
e 13 111
e 13 118
e 13 120
e 13 121
e 13 122
e 13 124
e 13 125
e 13 126
e 13 132
e 13 134
e 13 135
e 13 142
e 13 149
e 14 15
e 14 17
e 14 18
e 14 19
e 14 21
e 14 22
e 14 24
e 14 28
e 14 29
e 14 35
e 14 36
e 14 37
e 14 41
e 14 43
e 14 50
e 14 51
e 14 52
e 14 55
e 14 57
e 14 58
e 14 61
e 14 63
e 14 71
e 14 73
e 14 75
e 14 78
e 14 82
e 14 83
e 14 85
e 14 86
e 14 87
e 14 89
e 14 92
e 14 94
e 14 96
e 14 99
e 14 101
e 14 102
e 14 105
e 14 106
e 14 108
e 14 111
e 14 112
e 14 115
e 14 118
e 14 119
e 14 120
e 14 124
e 14 129
e 14 130
e 14 134
e 14 138
e 14 140
e 14 142
e 14 146
e 14 148
e 15 16
e 15 17
e 15 20
e 15 21
e 15 22
e 15 24
e 15 25
e 15 28
e 15 34
e 15 38
e 15 41
e 15 42
e 15 45
e 15 48
e 15 57
e 15 58
e 15 60
e 15 61
e 15 63
e 15 64
e 15 70
e 15 71
e 15 72
e 15 76
e 15 81
e 15 90
e 15 91
e 15 92
e 15 93
e 15 97
e 15 98
e 15 108
e 15 111
e 15 113
e 15 114
e 15 116
e 15 118
e 15 124
e 15 131
e 15 132
e 15 136
e 15 139
e 15 141
e 15 143
e 15 145
e 15 148
e 16 18
e 16 27
e 16 30
e 16 31
e 16 32
e 16 34
e 16 39
e 16 42
e 16 43
e 16 44
e 16 45
e 16 53
e 16 55
e 16 56
e 16 58
e 16 59
e 16 60
e 16 61
e 16 69
e 16 70
e 16 71
e 16 77
e 16 78
e 16 79
e 16 80
e 16 81
e 16 83
e 16 92
e 16 97
e 16 98
e 16 102
e 16 106
e 16 107
e 16 109
e 16 113
e 16 114
e 16 122
e 16 124
e 16 125
e 16 128
e 16 129
e 16 131
e 16 137
e 16 138
e 16 141
e 16 142
e 16 145
e 16 146
e 16 150
e 17 18
e 17 19
e 17 22
e 17 24
e 17 25
e 17 27
e 17 37
e 17 38
e 17 41
e 17 43
e 17 48
e 17 49
e 17 50
e 17 55
e 17 59
e 17 60
e 17 62
e 17 63
e 17 74
e 17 75
e 17 83
e 17 87
e 17 88
e 17 89
e 17 91
e 17 93
e 17 94
e 17 98
e 17 99
e 17 101
e 17 102
e 17 104
e 17 105
e 17 111
e 17 112
e 17 114
e 17 116
e 17 118
e 17 119
e 17 120
e 17 122
e 17 124
e 17 125
e 17 126
e 17 129
e 17 130
e 17 133
e 17 137
e 17 139
e 17 140
e 17 141
e 17 143
e 17 146
e 17 150
e 18 19
e 18 20
e 18 21
e 18 23
e 18 26
e 18 28
e 18 29
e 18 30
e 18 31
e 18 33
e 18 34
e 18 37
e 18 38
e 18 40
e 18 42
e 18 45
e 18 46
e 18 48
e 18 56
e 18 57
e 18 59
e 18 61
e 18 63
e 18 64
e 18 66
e 18 67
e 18 69
e 18 70
e 18 71
e 18 72
e 18 76
e 18 78
e 18 81
e 18 84
e 18 85
e 18 87
e 18 88
e 18 90
e 18 96
e 18 100
e 18 101
e 18 102
e 18 106
e 18 111
e 18 112
e 18 114
e 18 115
e 18 116
e 18 117
e 18 119
e 18 124
e 18 128
e 18 129
e 18 133
e 18 135
e 18 136
e 18 137
e 18 142
e 18 143
e 18 144
e 18 145
e 18 146
e 19 20
e 19 22
e 19 27
e 19 28
e 19 30
e 19 31
e 19 32
e 19 34
e 19 36
e 19 37
e 19 38
e 19 39
e 19 40
e 19 41
e 19 42
e 19 47
e 19 49
e 19 52
e 19 53
e 19 56
e 19 59
e 19 60
e 19 62
e 19 64
e 19 65
e 19 68
e 19 70
e 19 73
e 19 77
e 19 80
e 19 82
e 19 85
e 19 91
e 19 94
e 19 97
e 19 99
e 19 101
e 19 105
e 19 107
e 19 108
e 19 109
e 19 111
e 19 118
e 19 120
e 19 123
e 19 124
e 19 128
e 19 130
e 19 131
e 19 134
e 19 137
e 19 139
e 19 140
e 19 144
e 19 147
e 19 148
e 19 149
e 19 150
e 20 27
e 20 31
e 20 33
e 20 41
e 20 42
e 20 43
e 20 44
e 20 48
e 20 50
e 20 54
e 20 56
e 20 57
e 20 66
e 20 67
e 20 68
e 20 71
e 20 72
e 20 73
e 20 74
e 20 77
e 20 81
e 20 85
e 20 87
e 20 88
e 20 89
e 20 92
e 20 94
e 20 98
e 20 99
e 20 104
e 20 107
e 20 110
e 20 112
e 20 114
e 20 117
e 20 121
e 20 123
e 20 124
e 20 125
e 20 127
e 20 129
e 20 132
e 20 134
e 20 135
e 20 136
e 20 137
e 20 139
e 21 23
e 21 27
e 21 28
e 21 29
e 21 33
e 21 43
e 21 45
e 21 46
e 21 47
e 21 48
e 21 49
e 21 54
e 21 57
e 21 58
e 21 63
e 21 67
e 21 70
e 21 72
e 21 74
e 21 77
e 21 78
e 21 80
e 21 81
e 21 89
e 21 93
e 21 94
e 21 95
e 21 104
e 21 105
e 21 106
e 21 109
e 21 110
e 21 112
e 21 113
e 21 114
e 21 117
e 21 128
e 21 129
e 21 138
e 21 147
e 21 148
e 22 25
e 22 26
e 22 27
e 22 29
e 22 32
e 22 43
e 22 44
e 22 50
e 22 54
e 22 56
e 22 62
e 22 63
e 22 64
e 22 66
e 22 67
e 22 77
e 22 79
e 22 81
e 22 82
e 22 84
e 22 85
e 22 86
e 22 88
e 22 90
e 22 91
e 22 93
e 22 95
e 22 102
e 22 103
e 22 104
e 22 105
e 22 107
e 22 108
e 22 110
e 22 112
e 22 114
e 22 118
e 22 126
e 22 128
e 22 129
e 22 130
e 22 131
e 22 133
e 22 134
e 22 136
e 22 139
e 22 141
e 22 147
e 22 149
e 23 26
e 23 27
e 23 30
e 23 33
e 23 34
e 23 39
e 23 40
e 23 41
e 23 45
e 23 53
e 23 55
e 23 59
e 23 60
e 23 63
e 23 65
e 23 67
e 23 68
e 23 70
e 23 72
e 23 75
e 23 77
e 23 79
e 23 83
e 23 85
e 23 87
e 23 90
e 23 91
e 23 94
e 23 96
e 23 101
e 23 102
e 23 104
e 23 111
e 23 113
e 23 114
e 23 115
e 23 120
e 23 122
e 23 129
e 23 131
e 23 132
e 23 133
e 23 134
e 23 136
e 23 145
e 23 146
e 23 147
e 23 148
e 23 149
e 23 150
e 24 26
e 24 29
e 24 30
e 24 33
e 24 34
e 24 37
e 24 40
e 24 42
e 24 47
e 24 48
e 24 58
e 24 62
e 24 66
e 24 67
e 24 71
e 24 72
e 24 74
e 24 77
e 24 81
e 24 82
e 24 84
e 24 86
e 24 87
e 24 89
e 24 94
e 24 95
e 24 97
e 24 98
e 24 99
e 24 102
e 24 103
e 24 105
e 24 106
e 24 108
e 24 116
e 24 119
e 24 120
e 24 122
e 24 128
e 24 129
e 24 130
e 24 133
e 24 136
e 24 141
e 24 143
e 24 144
e 24 148
e 25 27
e 25 28
e 25 30
e 25 32
e 25 33
e 25 42
e 25 45
e 25 48
e 25 53
e 25 56
e 25 61
e 25 64
e 25 65
e 25 66
e 25 74
e 25 75
e 25 76
e 25 78
e 25 80
e 25 81
e 25 82
e 25 85
e 25 87
e 25 93
e 25 94
e 25 97
e 25 102
e 25 103
e 25 104
e 25 107
e 25 109
e 25 110
e 25 111
e 25 113
e 25 117
e 25 120
e 25 121
e 25 123
e 25 129
e 25 130
e 25 131
e 25 133
e 25 138
e 25 139
e 25 144
e 25 146
e 25 147
e 26 27
e 26 30
e 26 31
e 26 32
e 26 33
e 26 35
e 26 36
e 26 37
e 26 39
e 26 41
e 26 46
e 26 47
e 26 48
e 26 55
e 26 57
e 26 63
e 26 67
e 26 68
e 26 70
e 26 71
e 26 73
e 26 74
e 26 82
e 26 84
e 26 87
e 26 89
e 26 90
e 26 91
e 26 93
e 26 94
e 26 96
e 26 98
e 26 100
e 26 104
e 26 106
e 26 109
e 26 110
e 26 111
e 26 113
e 26 117
e 26 119
e 26 124
e 26 127
e 26 130
e 26 132
e 26 137
e 26 138
e 26 139
e 26 142
e 26 144
e 26 145
e 26 146
e 26 148
e 26 150
e 27 32
e 27 35
e 27 37
e 27 40
e 27 43
e 27 47
e 27 48
e 27 50
e 27 52
e 27 56
e 27 57
e 27 65
e 27 66
e 27 68
e 27 69
e 27 71
e 27 73
e 27 74
e 27 75
e 27 77
e 27 79
e 27 85
e 27 88
e 27 90
e 27 97
e 27 98
e 27 101
e 27 104
e 27 107
e 27 108
e 27 121
e 27 124
e 27 125
e 27 126
e 27 127
e 27 129
e 27 131
e 27 135
e 27 136
e 27 137
e 27 143
e 27 146
e 27 148
e 27 149
e 27 150
e 28 29
e 28 32
e 28 33
e 28 36
e 28 39
e 28 40
e 28 41
e 28 42
e 28 45
e 28 47
e 28 51
e 28 52
e 28 54
e 28 55
e 28 58
e 28 64
e 28 65
e 28 68
e 28 69
e 28 73
e 28 74
e 28 75
e 28 78
e 28 80
e 28 84
e 28 87
e 28 90
e 28 91
e 28 92
e 28 94
e 28 95
e 28 96
e 28 97
e 28 99
e 28 102
e 28 105
e 28 106
e 28 107
e 28 109
e 28 118
e 28 123
e 28 125
e 28 129
e 28 130
e 28 134
e 28 136
e 28 138
e 28 141
e 28 142
e 28 144
e 28 145
e 28 148
e 28 150
e 29 31
e 29 32
e 29 34
e 29 37
e 29 38
e 29 40
e 29 41
e 29 42
e 29 43
e 29 45
e 29 46
e 29 47
e 29 48
e 29 51
e 29 56
e 29 63
e 29 65
e 29 69
e 29 71
e 29 72
e 29 74
e 29 75
e 29 78
e 29 83
e 29 84
e 29 85
e 29 87
e 29 88
e 29 90
e 29 95
e 29 96
e 29 99
e 29 100
e 29 101
e 29 103
e 29 105
e 29 107
e 29 109
e 29 112
e 29 117
e 29 118
e 29 122
e 29 126
e 29 128
e 29 130
e 29 132
e 29 134
e 29 135
e 29 136
e 29 138
e 29 139
e 29 141
e 29 142
e 29 143
e 29 147
e 29 150
e 30 33
e 30 34
e 30 36
e 30 37
e 30 38
e 30 42
e 30 43
e 30 44
e 30 49
e 30 54
e 30 58
e 30 59
e 30 61
e 30 65
e 30 69
e 30 72
e 30 73
e 30 76
e 30 79
e 30 88
e 30 89
e 30 91
e 30 92
e 30 95
e 30 97
e 30 99
e 30 100
e 30 101
e 30 102
e 30 110
e 30 112
e 30 114
e 30 115
e 30 118
e 30 119
e 30 120
e 30 124
e 30 129
e 30 130
e 30 144
e 30 146
e 30 147
e 30 148
e 30 150
e 31 32
e 31 33
e 31 36
e 31 39
e 31 43
e 31 44
e 31 45
e 31 46
e 31 49
e 31 51
e 31 52
e 31 53
e 31 58
e 31 61
e 31 64
e 31 66
e 31 67
e 31 69
e 31 70
e 31 71
e 31 72
e 31 76
e 31 77
e 31 80
e 31 83
e 31 87
e 31 92
e 31 96
e 31 97
e 31 98
e 31 100
e 31 110
e 31 115
e 31 117
e 31 121
e 31 122
e 31 123
e 31 124
e 31 125
e 31 128
e 31 132
e 31 140
e 31 141
e 31 142
e 31 143
e 31 144
e 31 150
e 32 34
e 32 35
e 32 36
e 32 40
e 32 41
e 32 42
e 32 47
e 32 48
e 32 50
e 32 53
e 32 56
e 32 57
e 32 61
e 32 62
e 32 63
e 32 65
e 32 68
e 32 69
e 32 71
e 32 74
e 32 75
e 32 81
e 32 88
e 32 90
e 32 91
e 32 100
e 32 101
e 32 102
e 32 103
e 32 104
e 32 106
e 32 109
e 32 117
e 32 120
e 32 121
e 32 122
e 32 125
e 32 128
e 32 132
e 32 133
e 32 134
e 32 138
e 32 139
e 32 142
e 32 149
e 32 150
e 33 34
e 33 36
e 33 38
e 33 39
e 33 40
e 33 43
e 33 46
e 33 47
e 33 53
e 33 55
e 33 57
e 33 58
e 33 61
e 33 68
e 33 75
e 33 79
e 33 80
e 33 86
e 33 88
e 33 89
e 33 90
e 33 94
e 33 95
e 33 96
e 33 97
e 33 98
e 33 103
e 33 104
e 33 108
e 33 109
e 33 112
e 33 115
e 33 116
e 33 117
e 33 118
e 33 120
e 33 122
e 33 123
e 33 126
e 33 127
e 33 129
e 33 131
e 33 133
e 33 136
e 33 142
e 33 144
e 33 148
e 34 40
e 34 41
e 34 42
e 34 43
e 34 44
e 34 49
e 34 52
e 34 55
e 34 56
e 34 58
e 34 59
e 34 63
e 34 64
e 34 65
e 34 66
e 34 68
e 34 70
e 34 71
e 34 72
e 34 73
e 34 76
e 34 77
e 34 78
e 34 79
e 34 85
e 34 86
e 34 89
e 34 91
e 34 92
e 34 93
e 34 98
e 34 100
e 34 106
e 34 108
e 34 110
e 34 112
e 34 118
e 34 121
e 34 124
e 34 134
e 34 138
e 34 139
e 34 141
e 34 144
e 34 145
e 35 37
e 35 38
e 35 41
e 35 51
e 35 52
e 35 55
e 35 59
e 35 62
e 35 64
e 35 66
e 35 67
e 35 68
e 35 73
e 35 74
e 35 77
e 35 78
e 35 81
e 35 82
e 35 83
e 35 85
e 35 86
e 35 88
e 35 89
e 35 92
e 35 94
e 35 100
e 35 101
e 35 102
e 35 103
e 35 104
e 35 106
e 35 112
e 35 113
e 35 115
e 35 116
e 35 118
e 35 120
e 35 125
e 35 126
e 35 127
e 35 128
e 35 129
e 35 130
e 35 136
e 35 141
e 35 146
e 35 149
e 35 150
e 36 39
e 36 40
e 36 42
e 36 43
e 36 44
e 36 47
e 36 51
e 36 53
e 36 56
e 36 58
e 36 62
e 36 63
e 36 65
e 36 68
e 36 71
e 36 74
e 36 75
e 36 76
e 36 77
e 36 79
e 36 81
e 36 83
e 36 84
e 36 85
e 36 86
e 36 87
e 36 89
e 36 92
e 36 97
e 36 99
e 36 100
e 36 104
e 36 105
e 36 107
e 36 114
e 36 116
e 36 120
e 36 124
e 36 125
e 36 133
e 36 135
e 36 137
e 36 138
e 36 143
e 36 144
e 36 147
e 36 149
e 36 150
e 37 43
e 37 47
e 37 48
e 37 49
e 37 55
e 37 58
e 37 59
e 37 62
e 37 64
e 37 70
e 37 73
e 37 74
e 37 78
e 37 79
e 37 80
e 37 84
e 37 89
e 37 90
e 37 98
e 37 100
e 37 106
e 37 107
e 37 108
e 37 111
e 37 112
e 37 114
e 37 118
e 37 119
e 37 120
e 37 121
e 37 124
e 37 125
e 37 127
e 37 128
e 37 129
e 37 131
e 37 135
e 37 139
e 37 140
e 37 142
e 37 143
e 37 144
e 37 146
e 37 150
e 38 39
e 38 43
e 38 45
e 38 47
e 38 49
e 38 52
e 38 56
e 38 59
e 38 61
e 38 68
e 38 70
e 38 71
e 38 72
e 38 76
e 38 77
e 38 83
e 38 87
e 38 91
e 38 93
e 38 98
e 38 104
e 38 106
e 38 109
e 38 110
e 38 114
e 38 120
e 38 122
e 38 123
e 38 124
e 38 125
e 38 126
e 38 128
e 38 129
e 38 130
e 38 134
e 38 136
e 38 143
e 38 144
e 38 148
e 38 149
e 39 46
e 39 47
e 39 50
e 39 54
e 39 59
e 39 60
e 39 62
e 39 64
e 39 65
e 39 66
e 39 68
e 39 70
e 39 73
e 39 75
e 39 76
e 39 79
e 39 80
e 39 81
e 39 82
e 39 85
e 39 86
e 39 87
e 39 90
e 39 92
e 39 94
e 39 96
e 39 100
e 39 101
e 39 102
e 39 111
e 39 114
e 39 118
e 39 119
e 39 125
e 39 127
e 39 128
e 39 129
e 39 136
e 39 137
e 39 139
e 39 141
e 39 144
e 39 147
e 39 148
e 40 41
e 40 44
e 40 45
e 40 46
e 40 47
e 40 51
e 40 54
e 40 56
e 40 59
e 40 61
e 40 63
e 40 68
e 40 69
e 40 70
e 40 72
e 40 73
e 40 75
e 40 77
e 40 78
e 40 80
e 40 81
e 40 83
e 40 91
e 40 92
e 40 95
e 40 99
e 40 101
e 40 102
e 40 104
e 40 105
e 40 109
e 40 112
e 40 113
e 40 114
e 40 115
e 40 116
e 40 121
e 40 125
e 40 126
e 40 130
e 40 132
e 40 133
e 40 134
e 40 135
e 40 136
e 40 139
e 40 141
e 40 143
e 40 146
e 40 150
e 41 43
e 41 45
e 41 46
e 41 47
e 41 48
e 41 49
e 41 50
e 41 51
e 41 52
e 41 53
e 41 54
e 41 56
e 41 57
e 41 60
e 41 61
e 41 62
e 41 64
e 41 66
e 41 69
e 41 71
e 41 73
e 41 76
e 41 79
e 41 82
e 41 83
e 41 84
e 41 88
e 41 89
e 41 91
e 41 92
e 41 93
e 41 98
e 41 101
e 41 104
e 41 105
e 41 108
e 41 109
e 41 110
e 41 111
e 41 112
e 41 114
e 41 115
e 41 121
e 41 128
e 41 129
e 41 130
e 41 132
e 41 133
e 41 135
e 41 137
e 41 138
e 41 140
e 41 142
e 41 143
e 41 144
e 41 145
e 41 150
e 42 43
e 42 44
e 42 47
e 42 49
e 42 52
e 42 55
e 42 56
e 42 58
e 42 60
e 42 61
e 42 62
e 42 64
e 42 66
e 42 67
e 42 68
e 42 69
e 42 70
e 42 72
e 42 76
e 42 77
e 42 78
e 42 79
e 42 86
e 42 87
e 42 88
e 42 89
e 42 91
e 42 94
e 42 96
e 42 97
e 42 99
e 42 101
e 42 103
e 42 105
e 42 107
e 42 108
e 42 113
e 42 115
e 42 116
e 42 120
e 42 121
e 42 122
e 42 123
e 42 127
e 42 128
e 42 129
e 42 131
e 42 132
e 42 133
e 42 134
e 42 135
e 42 137
e 42 140
e 42 141
e 42 144
e 42 145
e 43 44
e 43 46
e 43 48
e 43 49
e 43 51
e 43 54
e 43 55
e 43 56
e 43 57
e 43 58
e 43 61
e 43 62
e 43 63
e 43 65
e 43 66
e 43 68
e 43 69
e 43 73
e 43 75
e 43 77
e 43 78
e 43 79
e 43 81
e 43 82
e 43 83
e 43 84
e 43 89
e 43 91
e 43 92
e 43 96
e 43 97
e 43 100
e 43 101
e 43 103
e 43 106
e 43 107
e 43 112
e 43 113
e 43 114
e 43 115
e 43 118
e 43 119
e 43 121
e 43 122
e 43 123
e 43 125
e 43 128
e 43 129
e 43 131
e 43 133
e 43 135
e 43 138
e 43 141
e 43 142
e 43 143
e 43 145
e 43 147
e 43 148
e 44 52
e 44 54
e 44 56
e 44 61
e 44 62
e 44 64
e 44 69
e 44 70
e 44 71
e 44 75
e 44 79
e 44 81
e 44 83
e 44 91
e 44 98
e 44 105
e 44 107
e 44 112
e 44 113
e 44 115
e 44 116
e 44 122
e 44 124
e 44 126
e 44 132
e 44 137
e 44 141
e 44 142
e 44 145
e 44 146
e 45 46
e 45 48
e 45 49
e 45 50
e 45 53
e 45 55
e 45 57
e 45 58
e 45 60
e 45 62
e 45 65
e 45 66
e 45 72
e 45 75
e 45 77
e 45 78
e 45 81
e 45 83
e 45 84
e 45 88
e 45 89
e 45 92
e 45 93
e 45 94
e 45 101
e 45 103
e 45 104
e 45 105
e 45 109
e 45 113
e 45 117
e 45 118
e 45 120
e 45 121
e 45 124
e 45 125
e 45 130
e 45 131
e 45 139
e 45 140
e 45 143
e 45 144
e 45 145
e 45 146
e 46 47
e 46 48
e 46 50
e 46 52
e 46 54
e 46 56
e 46 58
e 46 60
e 46 61
e 46 65
e 46 68
e 46 69
e 46 70
e 46 71
e 46 73
e 46 74
e 46 75
e 46 76
e 46 78
e 46 80
e 46 82
e 46 83
e 46 86
e 46 87
e 46 89
e 46 90
e 46 91
e 46 99
e 46 100
e 46 102
e 46 107
e 46 109
e 46 113
e 46 114
e 46 117
e 46 119
e 46 123
e 46 125
e 46 127
e 46 128
e 46 129
e 46 131
e 46 133
e 46 134
e 46 138
e 46 140
e 46 144
e 46 147
e 46 149
e 46 150
e 47 50
e 47 52
e 47 53
e 47 54
e 47 57
e 47 59
e 47 61
e 47 62
e 47 63
e 47 67
e 47 68
e 47 69
e 47 73
e 47 80
e 47 81
e 47 84
e 47 87
e 47 88
e 47 91
e 47 92
e 47 93
e 47 95
e 47 97
e 47 99
e 47 103
e 47 105
e 47 106
e 47 107
e 47 108
e 47 111
e 47 113
e 47 116
e 47 119
e 47 121
e 47 125
e 47 126
e 47 129
e 47 134
e 47 136
e 47 140
e 47 142
e 47 147
e 48 55
e 48 59
e 48 61
e 48 62
e 48 65
e 48 67
e 48 68
e 48 69
e 48 70
e 48 71
e 48 72
e 48 74
e 48 77
e 48 78
e 48 79
e 48 81
e 48 83
e 48 84
e 48 93
e 48 95
e 48 98
e 48 102
e 48 108
e 48 109
e 48 113
e 48 118
e 48 120
e 48 121
e 48 122
e 48 124
e 48 127
e 48 128
e 48 131
e 48 134
e 48 137
e 48 144
e 48 146
e 48 148
e 48 149
e 49 51
e 49 52
e 49 53
e 49 58
e 49 62
e 49 73
e 49 74
e 49 76
e 49 85
e 49 86
e 49 91
e 49 98
e 49 99
e 49 102
e 49 103
e 49 105
e 49 109
e 49 110
e 49 111
e 49 112
e 49 115
e 49 117
e 49 120
e 49 121
e 49 126
e 49 127
e 49 128
e 49 136
e 49 145
e 49 148
e 49 149
e 50 51
e 50 53
e 50 56
e 50 59
e 50 61
e 50 64
e 50 66
e 50 68
e 50 70
e 50 75
e 50 76
e 50 81
e 50 82
e 50 85
e 50 90
e 50 91
e 50 92
e 50 95
e 50 97
e 50 100
e 50 104
e 50 108
e 50 110
e 50 117
e 50 118
e 50 122
e 50 124
e 50 125
e 50 129
e 50 131
e 50 133
e 50 137
e 50 138
e 50 141
e 50 146
e 50 148
e 51 52
e 51 53
e 51 59
e 51 65
e 51 66
e 51 68
e 51 69
e 51 71
e 51 73
e 51 82
e 51 84
e 51 86
e 51 89
e 51 90
e 51 95
e 51 97
e 51 98
e 51 99
e 51 102
e 51 103
e 51 104
e 51 105
e 51 107
e 51 109
e 51 110
e 51 113
e 51 114
e 51 115
e 51 117
e 51 118
e 51 122
e 51 125
e 51 128
e 51 132
e 51 133
e 51 140
e 51 144
e 51 145
e 51 148
e 51 149
e 52 53
e 52 54
e 52 55
e 52 57
e 52 58
e 52 61
e 52 65
e 52 72
e 52 73
e 52 74
e 52 77
e 52 80
e 52 81
e 52 82
e 52 87
e 52 89
e 52 90
e 52 91
e 52 92
e 52 96
e 52 99
e 52 106
e 52 108
e 52 113
e 52 120
e 52 121
e 52 122
e 52 123
e 52 124
e 52 125
e 52 128
e 52 130
e 52 133
e 52 138
e 52 142
e 52 147
e 52 149
e 53 54
e 53 58
e 53 60
e 53 61
e 53 64
e 53 71
e 53 72
e 53 80
e 53 82
e 53 84
e 53 86
e 53 90
e 53 92
e 53 95
e 53 98
e 53 102
e 53 104
e 53 107
e 53 108
e 53 110
e 53 112
e 53 115
e 53 116
e 53 119
e 53 120
e 53 121
e 53 122
e 53 124
e 53 125
e 53 127
e 53 131
e 53 132
e 53 135
e 53 137
e 53 145
e 53 147
e 53 150
e 54 55
e 54 57
e 54 60
e 54 62
e 54 67
e 54 73
e 54 74
e 54 76
e 54 77
e 54 79
e 54 83
e 54 84
e 54 85
e 54 87
e 54 89
e 54 93
e 54 94
e 54 97
e 54 102
e 54 106
e 54 109
e 54 113
e 54 114
e 54 115
e 54 116
e 54 118
e 54 119
e 54 120
e 54 122
e 54 127
e 54 129
e 54 131
e 54 133
e 54 135
e 54 137
e 54 142
e 54 145
e 54 147
e 54 148
e 54 149
e 55 56
e 55 57
e 55 58
e 55 60
e 55 62
e 55 63
e 55 65
e 55 66
e 55 67
e 55 69
e 55 72
e 55 74
e 55 78
e 55 79
e 55 80
e 55 83
e 55 86
e 55 88
e 55 89
e 55 94
e 55 95
e 55 96
e 55 98
e 55 99
e 55 100
e 55 104
e 55 107
e 55 112
e 55 113
e 55 115
e 55 118
e 55 120
e 55 125
e 55 126
e 55 127
e 55 128
e 55 130
e 55 131
e 55 132
e 55 138
e 55 142
e 55 144
e 55 146
e 55 150
e 56 59
e 56 60
e 56 62
e 56 63
e 56 65
e 56 66
e 56 69
e 56 70
e 56 71
e 56 76
e 56 78
e 56 81
e 56 82
e 56 83
e 56 87
e 56 88
e 56 95
e 56 97
e 56 98
e 56 99
e 56 107
e 56 108
e 56 111
e 56 114
e 56 116
e 56 120
e 56 123
e 56 125
e 56 126
e 56 128
e 56 132
e 56 133
e 56 139
e 56 140
e 56 141
e 56 145
e 56 147
e 56 149
e 57 58
e 57 65
e 57 67
e 57 72
e 57 74
e 57 75
e 57 77
e 57 78
e 57 79
e 57 92
e 57 95
e 57 100
e 57 102
e 57 105
e 57 108
e 57 113
e 57 117
e 57 118
e 57 129
e 57 130
e 57 131
e 57 132
e 57 133
e 57 137
e 57 139
e 57 143
e 57 144
e 58 61
e 58 62
e 58 64
e 58 71
e 58 72
e 58 76
e 58 78
e 58 81
e 58 87
e 58 89
e 58 91
e 58 92
e 58 100
e 58 103
e 58 104
e 58 105
e 58 107
e 58 108
e 58 114
e 58 120
e 58 122
e 58 123
e 58 126
e 58 130
e 58 131
e 58 133
e 58 135
e 58 136
e 58 138
e 58 143
e 58 144
e 58 147
e 58 150
e 59 63
e 59 67
e 59 69
e 59 70
e 59 73
e 59 75
e 59 76
e 59 77
e 59 79
e 59 83
e 59 85
e 59 88
e 59 91
e 59 93
e 59 95
e 59 96
e 59 98
e 59 100
e 59 101
e 59 102
e 59 105
e 59 110
e 59 112
e 59 113
e 59 114
e 59 115
e 59 116
e 59 117
e 59 121
e 59 122
e 59 124
e 59 129
e 59 132
e 59 134
e 59 138
e 59 145
e 59 146
e 60 61
e 60 62
e 60 68
e 60 71
e 60 73
e 60 75
e 60 84
e 60 85
e 60 88
e 60 90
e 60 94
e 60 95
e 60 100
e 60 101
e 60 104
e 60 106
e 60 107
e 60 110
e 60 113
e 60 114
e 60 117
e 60 119
e 60 121
e 60 122
e 60 126
e 60 129
e 60 130
e 60 131
e 60 133
e 60 136
e 60 139
e 60 142
e 60 143
e 60 148
e 61 63
e 61 64
e 61 67
e 61 68
e 61 69
e 61 75
e 61 77
e 61 79
e 61 82
e 61 84
e 61 87
e 61 90
e 61 92
e 61 94
e 61 95
e 61 99
e 61 101
e 61 102
e 61 104
e 61 109
e 61 110
e 61 125
e 61 126
e 61 131
e 61 134
e 61 138
e 61 143
e 61 144
e 61 146
e 61 147
e 62 63
e 62 66
e 62 69
e 62 72
e 62 73
e 62 74
e 62 76
e 62 79
e 62 84
e 62 87
e 62 88
e 62 90
e 62 91
e 62 93
e 62 94
e 62 95
e 62 97
e 62 98
e 62 100
e 62 101
e 62 103
e 62 105
e 62 107
e 62 110
e 62 111
e 62 117
e 62 121
e 62 122
e 62 126
e 62 127
e 62 128
e 62 130
e 62 131
e 62 134
e 62 137
e 62 150
e 63 64
e 63 65
e 63 67
e 63 68
e 63 70
e 63 74
e 63 76
e 63 78
e 63 82
e 63 85
e 63 86
e 63 87
e 63 89
e 63 91
e 63 92
e 63 93
e 63 94
e 63 97
e 63 98
e 63 100
e 63 106
e 63 109
e 63 110
e 63 115
e 63 116
e 63 117
e 63 119
e 63 120
e 63 122
e 63 126
e 63 131
e 63 133
e 63 136
e 63 139
e 63 143
e 63 146
e 64 66
e 64 67
e 64 68
e 64 69
e 64 70
e 64 71
e 64 72
e 64 73
e 64 75
e 64 76
e 64 78
e 64 79
e 64 81
e 64 82
e 64 83
e 64 87
e 64 88
e 64 91
e 64 93
e 64 95
e 64 96
e 64 98
e 64 102
e 64 107
e 64 108
e 64 110
e 64 111
e 64 113
e 64 118
e 64 121
e 64 123
e 64 125
e 64 127
e 64 128
e 64 131
e 64 136
e 64 138
e 64 140
e 64 142
e 64 144
e 64 150
e 65 66
e 65 67
e 65 70
e 65 74
e 65 78
e 65 79
e 65 83
e 65 87
e 65 88
e 65 89
e 65 93
e 65 95
e 65 99
e 65 105
e 65 106
e 65 107
e 65 111
e 65 113
e 65 118
e 65 127
e 65 130
e 65 131
e 65 140
e 65 141
e 65 142
e 65 144
e 65 145
e 65 148
e 66 67
e 66 68
e 66 70
e 66 71
e 66 72
e 66 75
e 66 76
e 66 77
e 66 81
e 66 82
e 66 87
e 66 88
e 66 89
e 66 90
e 66 92
e 66 94
e 66 96
e 66 97
e 66 99
e 66 102
e 66 104
e 66 106
e 66 107
e 66 108
e 66 110
e 66 114
e 66 115
e 66 117
e 66 119
e 66 120
e 66 122
e 66 123
e 66 124
e 66 126
e 66 128
e 66 130
e 66 133
e 66 134
e 66 137
e 66 142
e 66 143
e 66 146
e 66 147
e 66 149
e 66 150
e 67 71
e 67 72
e 67 78
e 67 80
e 67 86
e 67 89
e 67 91
e 67 92
e 67 93
e 67 95
e 67 96
e 67 98
e 67 103
e 67 105
e 67 107
e 67 108
e 67 110
e 67 111
e 67 118
e 67 119
e 67 121
e 67 124
e 67 125
e 67 126
e 67 132
e 67 135
e 67 140
e 67 142
e 67 145
e 67 147
e 68 71
e 68 72
e 68 73
e 68 76
e 68 77
e 68 79
e 68 80
e 68 84
e 68 94
e 68 99
e 68 101
e 68 102
e 68 103
e 68 107
e 68 108
e 68 110
e 68 111
e 68 112
e 68 114
e 68 117
e 68 119
e 68 125
e 68 127
e 68 128
e 68 130
e 68 131
e 68 135
e 68 138
e 68 143
e 68 144
e 68 147
e 68 148
e 68 149
e 69 73
e 69 74
e 69 75
e 69 84
e 69 89
e 69 90
e 69 92
e 69 93
e 69 96
e 69 97
e 69 98
e 69 99
e 69 101
e 69 102
e 69 103
e 69 104
e 69 108
e 69 110
e 69 113
e 69 119
e 69 121
e 69 122
e 69 127
e 69 128
e 69 131
e 69 136
e 69 137
e 69 144
e 69 146
e 69 147
e 69 150
e 70 73
e 70 74
e 70 78
e 70 80
e 70 81
e 70 83
e 70 84
e 70 86
e 70 87
e 70 89
e 70 90
e 70 92
e 70 95
e 70 97
e 70 108
e 70 110
e 70 111
e 70 112
e 70 113
e 70 118
e 70 119
e 70 120
e 70 127
e 70 128
e 70 129
e 70 130
e 70 131
e 70 133
e 70 135
e 70 136
e 70 138
e 70 140
e 70 141
e 70 148
e 70 149
e 71 73
e 71 75
e 71 77
e 71 79
e 71 80
e 71 81
e 71 82
e 71 86
e 71 87
e 71 92
e 71 94
e 71 95
e 71 96
e 71 97
e 71 99
e 71 100
e 71 106
e 71 108
e 71 109
e 71 112
e 71 114
e 71 117
e 71 121
e 71 123
e 71 124
e 71 128
e 71 132
e 71 135
e 71 144
e 71 146
e 72 73
e 72 79
e 72 80
e 72 81
e 72 88
e 72 91
e 72 95
e 72 97
e 72 98
e 72 99
e 72 104
e 72 105
e 72 106
e 72 109
e 72 111
e 72 113
e 72 115
e 72 116
e 72 119
e 72 126
e 72 127
e 72 128
e 72 130
e 72 133
e 72 138
e 72 140
e 72 141
e 72 144
e 72 147
e 72 149
e 72 150
e 73 74
e 73 76
e 73 77
e 73 79
e 73 82
e 73 83
e 73 85
e 73 86
e 73 88
e 73 93
e 73 96
e 73 99
e 73 101
e 73 103
e 73 105
e 73 108
e 73 112
e 73 118
e 73 119
e 73 120
e 73 121
e 73 123
e 73 124
e 73 125
e 73 126
e 73 129
e 73 130
e 73 131
e 73 133
e 73 136
e 73 139
e 73 144
e 74 75
e 74 78
e 74 79
e 74 80
e 74 82
e 74 83
e 74 86
e 74 87
e 74 89
e 74 90
e 74 91
e 74 92
e 74 94
e 74 95
e 74 103
e 74 106
e 74 112
e 74 113
e 74 127
e 74 128
e 74 129
e 74 130
e 74 133
e 74 135
e 74 138
e 74 139
e 74 142
e 74 143
e 74 144
e 74 148
e 74 149
e 75 82
e 75 83
e 75 87
e 75 91
e 75 92
e 75 94
e 75 95
e 75 100
e 75 101
e 75 102
e 75 103
e 75 105
e 75 106
e 75 107
e 75 110
e 75 112
e 75 114
e 75 115
e 75 116
e 75 117
e 75 120
e 75 121
e 75 123
e 75 125
e 75 127
e 75 128
e 75 130
e 75 131
e 75 135
e 75 136
e 75 137
e 75 138
e 75 139
e 75 142
e 75 143
e 75 146
e 75 149
e 75 150
e 76 77
e 76 84
e 76 86
e 76 87
e 76 90
e 76 95
e 76 96
e 76 97
e 76 98
e 76 99
e 76 100
e 76 101
e 76 102
e 76 103
e 76 106
e 76 107
e 76 112
e 76 113
e 76 115
e 76 116
e 76 117
e 76 122
e 76 125
e 76 126
e 76 127
e 76 131
e 76 133
e 76 137
e 76 138
e 76 140
e 76 143
e 76 145
e 76 147
e 76 148
e 76 149
e 76 150
e 77 79
e 77 81
e 77 85
e 77 88
e 77 90
e 77 91
e 77 93
e 77 94
e 77 98
e 77 100
e 77 106
e 77 108
e 77 109
e 77 110
e 77 111
e 77 115
e 77 116
e 77 117
e 77 118
e 77 121
e 77 123
e 77 134
e 77 135
e 77 137
e 77 138
e 77 140
e 77 141
e 77 142
e 77 144
e 77 146
e 77 147
e 77 150
e 78 80
e 78 82
e 78 83
e 78 86
e 78 89
e 78 90
e 78 91
e 78 92
e 78 93
e 78 99
e 78 101
e 78 102
e 78 104
e 78 107
e 78 108
e 78 112
e 78 115
e 78 122
e 78 123
e 78 127
e 78 134
e 78 138
e 78 139
e 78 144
e 78 148
e 79 81
e 79 82
e 79 88
e 79 92
e 79 98
e 79 102
e 79 111
e 79 115
e 79 117
e 79 118
e 79 120
e 79 124
e 79 125
e 79 127
e 79 132
e 79 134
e 79 143
e 79 144
e 79 149
e 79 150
e 80 84
e 80 88
e 80 93
e 80 99
e 80 105
e 80 107
e 80 108
e 80 109
e 80 111
e 80 112
e 80 113
e 80 114
e 80 116
e 80 121
e 80 123
e 80 124
e 80 127
e 80 130
e 80 131
e 80 132
e 80 135
e 80 138
e 80 141
e 80 145
e 81 88
e 81 92
e 81 96
e 81 97
e 81 98
e 81 99
e 81 104
e 81 106
e 81 111
e 81 112
e 81 117
e 81 120
e 81 122
e 81 123
e 81 124
e 81 125
e 81 126
e 81 127
e 81 130
e 81 132
e 81 133
e 81 134
e 81 141
e 81 144
e 81 145
e 81 148
e 82 83
e 82 85
e 82 86
e 82 87
e 82 92
e 82 94
e 82 100
e 82 103
e 82 110
e 82 112
e 82 115
e 82 116
e 82 117
e 82 122
e 82 125
e 82 126
e 82 127
e 82 128
e 82 129
e 82 131
e 82 134
e 82 135
e 82 137
e 82 138
e 82 139
e 82 140
e 82 141
e 82 144
e 82 145
e 82 146
e 83 88
e 83 90
e 83 91
e 83 92
e 83 95
e 83 96
e 83 98
e 83 104
e 83 108
e 83 114
e 83 117
e 83 118
e 83 128
e 83 136
e 83 139
e 83 141
e 83 144
e 83 148
e 83 150
e 84 85
e 84 87
e 84 89
e 84 92
e 84 93
e 84 101
e 84 102
e 84 103
e 84 104
e 84 105
e 84 108
e 84 109
e 84 110
e 84 115
e 84 117
e 84 124
e 84 125
e 84 128
e 84 131
e 84 132
e 84 133
e 84 134
e 84 135
e 84 144
e 84 145
e 84 149
e 85 86
e 85 88
e 85 90
e 85 91
e 85 93
e 85 95
e 85 96
e 85 98
e 85 99
e 85 101
e 85 102
e 85 103
e 85 104
e 85 105
e 85 108
e 85 113
e 85 114
e 85 117
e 85 122
e 85 123
e 85 124
e 85 127
e 85 130
e 85 131
e 85 134
e 85 136
e 85 139
e 85 149
e 85 150
e 86 87
e 86 93
e 86 94
e 86 96
e 86 98
e 86 99
e 86 101
e 86 102
e 86 103
e 86 112
e 86 119
e 86 120
e 86 123
e 86 124
e 86 127
e 86 128
e 86 129
e 86 131
e 86 132
e 86 133
e 86 134
e 86 136
e 86 139
e 86 142
e 86 143
e 86 145
e 86 146
e 86 148
e 87 88
e 87 91
e 87 92
e 87 93
e 87 95
e 87 100
e 87 101
e 87 103
e 87 105
e 87 107
e 87 108
e 87 111
e 87 118
e 87 119
e 87 120
e 87 121
e 87 122
e 87 127
e 87 129
e 87 131
e 87 132
e 87 133
e 87 135
e 87 136
e 87 137
e 87 140
e 87 142
e 87 145
e 87 146
e 87 147
e 87 148
e 87 150
e 88 90
e 88 93
e 88 94
e 88 95
e 88 97
e 88 99
e 88 101
e 88 103
e 88 104
e 88 106
e 88 107
e 88 108
e 88 119
e 88 120
e 88 122
e 88 123
e 88 124
e 88 128
e 88 131
e 88 133
e 88 135
e 88 137
e 88 138
e 88 142
e 88 143
e 88 145
e 88 148
e 88 149
e 89 94
e 89 95
e 89 98
e 89 99
e 89 101
e 89 103
e 89 110
e 89 111
e 89 113
e 89 115
e 89 116
e 89 122
e 89 123
e 89 127
e 89 130
e 89 132
e 89 133
e 89 135
e 89 136
e 89 137
e 89 142
e 89 147
e 89 148
e 89 150
e 90 91
e 90 93
e 90 100
e 90 102
e 90 106
e 90 107
e 90 109
e 90 114
e 90 117
e 90 125
e 90 126
e 90 127
e 90 128
e 90 129
e 90 132
e 90 134
e 90 135
e 90 136
e 90 137
e 90 138
e 90 144
e 90 145
e 90 146
e 90 148
e 90 149
e 91 92
e 91 95
e 91 96
e 91 99
e 91 103
e 91 104
e 91 106
e 91 107
e 91 109
e 91 110
e 91 111
e 91 115
e 91 117
e 91 119
e 91 122
e 91 123
e 91 127
e 91 128
e 91 129
e 91 133
e 91 138
e 91 142
e 91 147
e 92 95
e 92 105
e 92 106
e 92 107
e 92 112
e 92 114
e 92 121
e 92 126
e 92 127
e 92 128
e 92 130
e 92 131
e 92 132
e 92 133
e 92 134
e 92 139
e 92 142
e 92 145
e 92 148
e 92 149
e 92 150
e 93 95
e 93 99
e 93 105
e 93 106
e 93 107
e 93 108
e 93 109
e 93 110
e 93 111
e 93 113
e 93 114
e 93 116
e 93 120
e 93 122
e 93 128
e 93 131
e 93 132
e 93 135
e 93 139
e 93 143
e 93 144
e 93 147
e 93 148
e 94 100
e 94 101
e 94 102
e 94 103
e 94 104
e 94 107
e 94 108
e 94 119
e 94 129
e 94 131
e 94 133
e 94 134
e 94 141
e 94 143
e 94 144
e 94 145
e 94 147
e 94 148
e 94 149
e 95 96
e 95 97
e 95 99
e 95 100
e 95 101
e 95 102
e 95 103
e 95 104
e 95 105
e 95 106
e 95 107
e 95 108
e 95 109
e 95 110
e 95 114
e 95 116
e 95 118
e 95 121
e 95 124
e 95 125
e 95 129
e 95 132
e 95 134
e 95 135
e 95 137
e 95 139
e 95 142
e 95 143
e 95 146
e 95 150
e 96 100
e 96 104
e 96 105
e 96 107
e 96 110
e 96 111
e 96 112
e 96 116
e 96 122
e 96 123
e 96 125
e 96 126
e 96 127
e 96 128
e 96 131
e 96 133
e 96 136
e 96 137
e 96 144
e 96 146
e 96 148
e 96 150
e 97 99
e 97 101
e 97 105
e 97 107
e 97 108
e 97 109
e 97 110
e 97 111
e 97 112
e 97 113
e 97 114
e 97 116
e 97 118
e 97 121
e 97 122
e 97 125
e 97 128
e 97 130
e 97 131
e 97 135
e 97 138
e 97 139
e 97 140
e 97 142
e 97 143
e 97 144
e 97 145
e 97 149
e 97 150
e 98 104
e 98 105
e 98 108
e 98 110
e 98 111
e 98 113
e 98 116
e 98 119
e 98 121
e 98 123
e 98 125
e 98 128
e 98 129
e 98 130
e 98 133
e 98 135
e 98 136
e 98 137
e 98 138
e 98 139
e 98 140
e 98 142
e 98 143
e 98 147
e 99 101
e 99 104
e 99 107
e 99 111
e 99 114
e 99 117
e 99 119
e 99 121
e 99 122
e 99 127
e 99 128
e 99 130
e 99 131
e 99 134
e 99 136
e 99 140
e 99 142
e 99 143
e 99 148
e 99 150
e 100 107
e 100 109
e 100 110
e 100 111
e 100 114
e 100 116
e 100 117
e 100 119
e 100 121
e 100 126
e 100 128
e 100 130
e 100 135
e 100 136
e 100 138
e 100 139
e 100 143
e 100 145
e 100 148
e 100 150
e 101 102
e 101 104
e 101 112
e 101 113
e 101 115
e 101 116
e 101 118
e 101 119
e 101 123
e 101 124
e 101 125
e 101 126
e 101 132
e 101 134
e 101 136
e 101 137
e 101 141
e 101 144
e 101 145
e 101 150
e 102 105
e 102 106
e 102 112
e 102 113
e 102 117
e 102 123
e 102 127
e 102 128
e 102 129
e 102 134
e 102 135
e 102 137
e 102 142
e 102 143
e 102 144
e 102 145
e 102 146
e 102 147
e 103 107
e 103 109
e 103 114
e 103 117
e 103 119
e 103 125
e 103 130
e 103 131
e 103 132
e 103 135
e 103 142
e 103 145
e 104 106
e 104 108
e 104 109
e 104 110
e 104 111
e 104 113
e 104 115
e 104 117
e 104 119
e 104 120
e 104 126
e 104 129
e 104 130
e 104 134
e 104 136
e 104 138
e 104 140
e 104 141
e 104 142
e 104 143
e 104 144
e 104 149
e 104 150
e 105 110
e 105 113
e 105 118
e 105 119
e 105 121
e 105 122
e 105 123
e 105 124
e 105 125
e 105 127
e 105 128
e 105 129
e 105 130
e 105 131
e 105 133
e 105 134
e 105 135
e 105 141
e 105 142
e 105 144
e 105 147
e 105 149
e 105 150
e 106 111
e 106 112
e 106 113
e 106 114
e 106 117
e 106 118
e 106 120
e 106 123
e 106 124
e 106 125
e 106 126
e 106 127
e 106 130
e 106 135
e 106 139
e 106 142
e 106 144
e 106 145
e 106 148
e 106 149
e 107 110
e 107 111
e 107 115
e 107 118
e 107 119
e 107 125
e 107 126
e 107 127
e 107 128
e 107 131
e 107 133
e 107 136
e 107 137
e 107 139
e 107 141
e 107 144
e 107 147
e 107 148
e 108 114
e 108 115
e 108 117
e 108 118
e 108 120
e 108 125
e 108 126
e 108 128
e 108 129
e 108 130
e 108 131
e 108 134
e 108 137
e 108 147
e 108 148
e 108 149
e 109 110
e 109 115
e 109 116
e 109 117
e 109 118
e 109 119
e 109 120
e 109 123
e 109 124
e 109 126
e 109 128
e 109 131
e 109 133
e 109 136
e 109 141
e 109 142
e 109 143
e 109 146
e 109 148
e 109 149
e 110 111
e 110 112
e 110 113
e 110 114
e 110 115
e 110 120
e 110 122
e 110 125
e 110 126
e 110 127
e 110 128
e 110 131
e 110 134
e 110 136
e 110 141
e 110 142
e 110 145
e 110 147
e 110 149
e 110 150
e 111 112
e 111 113
e 111 115
e 111 117
e 111 119
e 111 125
e 111 126
e 111 129
e 111 133
e 111 135
e 111 136
e 111 137
e 111 138
e 111 141
e 111 142
e 111 144
e 111 149
e 111 150
e 112 117
e 112 124
e 112 125
e 112 127
e 112 128
e 112 130
e 112 131
e 112 136
e 112 139
e 112 140
e 112 144
e 112 146
e 112 147
e 112 149
e 112 150
e 113 115
e 113 116
e 113 117
e 113 118
e 113 120
e 113 128
e 113 129
e 113 131
e 113 132
e 113 133
e 113 135
e 113 136
e 113 138
e 113 139
e 113 140
e 113 141
e 113 145
e 113 149
e 114 117
e 114 124
e 114 126
e 114 127
e 114 128
e 114 134
e 114 138
e 114 140
e 114 143
e 114 145
e 114 146
e 114 147
e 114 148
e 115 116
e 115 122
e 115 126
e 115 127
e 115 129
e 115 130
e 115 132
e 115 133
e 115 137
e 115 139
e 115 140
e 115 142
e 115 144
e 115 150
e 116 117
e 116 118
e 116 120
e 116 124
e 116 126
e 116 128
e 116 129
e 116 133
e 116 134
e 116 140
e 116 144
e 116 145
e 116 147
e 116 148
e 116 149
e 117 123
e 117 125
e 117 128
e 117 129
e 117 131
e 117 134
e 117 135
e 117 137
e 117 138
e 117 139
e 117 140
e 117 146
e 117 147
e 117 149
e 117 150
e 118 119
e 118 121
e 118 122
e 118 124
e 118 126
e 118 135
e 118 139
e 118 140
e 118 141
e 118 142
e 118 145
e 118 146
e 118 147
e 118 149
e 119 122
e 119 123
e 119 125
e 119 126
e 119 130
e 119 134
e 119 135
e 119 147
e 120 121
e 120 122
e 120 123
e 120 131
e 120 133
e 120 135
e 120 137
e 120 138
e 120 140
e 120 144
e 120 145
e 120 146
e 120 148
e 120 149
e 120 150
e 121 122
e 121 124
e 121 125
e 121 127
e 121 128
e 121 130
e 121 134
e 121 135
e 121 136
e 121 137
e 121 138
e 121 142
e 121 146
e 121 147
e 121 148
e 122 123
e 122 126
e 122 130
e 122 133
e 122 134
e 122 135
e 122 136
e 122 138
e 122 143
e 122 147
e 122 149
e 122 150
e 123 126
e 123 127
e 123 132
e 123 134
e 123 139
e 123 140
e 123 147
e 123 149
e 124 125
e 124 128
e 124 130
e 124 132
e 124 134
e 124 138
e 124 140
e 124 142
e 124 145
e 124 146
e 124 147
e 124 148
e 124 150
e 125 127
e 125 130
e 125 131
e 125 137
e 125 141
e 125 144
e 125 145
e 125 148
e 125 149
e 125 150
e 126 127
e 126 128
e 126 129
e 126 132
e 126 134
e 126 135
e 126 137
e 126 138
e 126 139
e 126 140
e 126 141
e 126 144
e 127 129
e 127 131
e 127 133
e 127 134
e 127 137
e 127 138
e 127 139
e 127 140
e 127 143
e 127 144
e 127 147
e 127 149
e 127 150
e 128 129
e 128 131
e 128 135
e 128 138
e 128 142
e 129 130
e 129 132
e 129 142
e 129 146
e 129 149
e 129 150
e 130 131
e 130 136
e 130 138
e 130 143
e 130 145
e 130 146
e 130 148
e 130 149
e 130 150
e 131 132
e 131 135
e 131 136
e 131 140
e 131 141
e 131 142
e 131 145
e 131 149
e 132 135
e 132 136
e 132 138
e 132 139
e 132 143
e 132 145
e 132 148
e 132 149
e 133 136
e 133 139
e 133 140
e 133 143
e 133 144
e 133 146
e 133 150
e 134 135
e 134 136
e 134 140
e 134 142
e 134 145
e 134 148
e 135 136
e 135 137
e 135 140
e 135 147
e 136 139
e 137 139
e 137 140
e 137 142
e 137 145
e 137 147
e 137 149
e 138 139
e 138 140
e 138 141
e 138 144
e 138 146
e 138 148
e 138 149
e 138 150
e 139 143
e 139 144
e 139 145
e 139 150
e 140 141
e 140 142
e 140 143
e 140 144
e 140 147
e 141 142
e 141 143
e 141 146
e 141 150
e 142 148
e 142 150
e 143 146
e 143 149
e 144 149
e 144 150
e 145 146
e 145 147
e 146 147
e 146 148
e 146 149
e 148 149
e 149 150
